\ENCODING=ISO-8859-1
\Problem name: ilog.cplex

Minimize
 obj1: z
Subject To
 c1:  3 W_0 + 2 W_1 + W_2 + W_3 + 2 W_4 + W_5 + W_6 <= 4
 c2:  3 W_0 + 2 W_1 + W_2 + W_3 + 2 W_4 + W_5 + W_6 >= 0
 c3:  2 W_1 - 12 A_0 - 8 A_7 - 12 A_10 - 6 A_14 - z <= 0
 c4:  W_3 - 98 A_10 - z <= 0
 c5:  3 W_0 - 20 A_0 - 48 A_3 - 16 A_10 - z <= 0
 c6:  W_2 - 88 A_8 - 20 A_12 - 48 A_16 - z <= 0
 c7:  2 W_4 - 14 A_2 - 13 A_23 - z <= 0
 c8:  W_5 - 8 A_32 - z <= 0
 c9:  W_6 - 8 A_1 - 12 A_4 - 16 A_5 - 4 A_6 - 19 A_9 - A_11 - 17 A_13 - 4 A_15
      - A_17 - 8 A_18 - 13 A_19 - 14 A_20 - 8 A_21 - 15 A_22 - 14 A_24 - 5 A_25
      - 8 A_26 - 6 A_27 - 16 A_28 - 16 A_29 - 23 A_30 - 18 A_31 - z <= 0
 c10: A_0 + A_1 + A_2 + A_3 + A_4 + A_5 + A_6 + A_7 + A_8 + A_9 + A_10 + A_11
      + A_12 + A_13 + A_14 + A_15 + A_16 + A_17 + A_18 + A_19 + A_20 + A_21
      + A_22 + A_23 + A_24 + A_25 + A_26 + A_27 + A_28 + A_29 + A_30 + A_31
      + A_32 >= 1
 c11: - 3 W_0 - 2 W_1 - W_2 - W_3 - 2 W_4 - W_5 - W_6 + 4 A_0 + 4 A_1 + 4 A_2
      + 4 A_3 + 4 A_4 + 4 A_5 + 4 A_6 + 4 A_7 + 4 A_8 + 4 A_9 + 4 A_10 + 4 A_11
      + 4 A_12 + 4 A_13 + 4 A_14 + 4 A_15 + 4 A_16 + 4 A_17 + 4 A_18 + 4 A_19
      + 4 A_20 + 4 A_21 + 4 A_22 + 4 A_23 + 4 A_24 + 4 A_25 + 4 A_26 + 4 A_27
      + 4 A_28 + 4 A_29 + 4 A_30 + 4 A_31 + 4 A_32 >= -0.5
 c12: - 3 W_0 - 2 W_1 - W_2 - W_3 - 2 W_4 - W_5 - W_6 + 4 A_0 + 4 A_1 + 4 A_2
      + 4 A_3 + 4 A_4 + 4 A_5 + 4 A_6 + 4 A_7 + 4 A_8 + 4 A_9 + 4 A_10 + 4 A_11
      + 4 A_12 + 4 A_13 + 4 A_14 + 4 A_15 + 4 A_16 + 4 A_17 + 4 A_18 + 4 A_19
      + 4 A_20 + 4 A_21 + 4 A_22 + 4 A_23 + 4 A_24 + 4 A_25 + 4 A_26 + 4 A_27
      + 4 A_28 + 4 A_29 + 4 A_30 + 4 A_31 + 4 A_32 <= 0.5
Bounds
 0 <= W_0 <= 1
 0 <= W_1 <= 1
 0 <= W_2 <= 1
 0 <= W_3 <= 1
 0 <= W_4 <= 1
 0 <= W_5 <= 1
 0 <= W_6 <= 1
 0 <= A_0 <= 1
 0 <= A_1 <= 1
 0 <= A_2 <= 1
 0 <= A_3 <= 1
 0 <= A_4 <= 1
 0 <= A_5 <= 1
 0 <= A_6 <= 1
 0 <= A_7 <= 1
 0 <= A_8 <= 1
 0 <= A_9 <= 1
 0 <= A_10 <= 1
 0 <= A_11 <= 1
 0 <= A_12 <= 1
 0 <= A_13 <= 1
 0 <= A_14 <= 1
 0 <= A_15 <= 1
 0 <= A_16 <= 1
 0 <= A_17 <= 1
 0 <= A_18 <= 1
 0 <= A_19 <= 1
 0 <= A_20 <= 1
 0 <= A_21 <= 1
 0 <= A_22 <= 1
 0 <= A_23 <= 1
 0 <= A_24 <= 1
 0 <= A_25 <= 1
 0 <= A_26 <= 1
 0 <= A_27 <= 1
 0 <= A_28 <= 1
 0 <= A_29 <= 1
 0 <= A_30 <= 1
 0 <= A_31 <= 1
 0 <= A_32 <= 1
 0 <= z <= 4
Binaries
 W_0  W_1  W_2  W_3  W_4  W_5  W_6  A_0  A_1  A_2  A_3  A_4  A_5  A_6  A_7 
 A_8  A_9  A_10  A_11  A_12  A_13  A_14  A_15  A_16  A_17  A_18  A_19  A_20 
 A_21  A_22  A_23  A_24  A_25  A_26  A_27  A_28  A_29  A_30  A_31  A_32 
End
